30	100	100	100
42	68	75
39	95	77
22	99	87
11	71	68
21	82	72
39	91	66
40	94	94
43	83	93
15	76	88
40	77	85
35	69	89
24	68	91
12	95	90
41	81	80
8	84	88
39	97	73
27	68	93
23	82	81
5	68	89
34	82	75
8	67	76
5	75	76
8	80	67
2	96	98
25	96	67
47	76	70
27	94	97
15	92	82
25	92	71
48	82	85
